100 8
969 538
191 759
553 342
161 820
373 374
137 918
858 488
504 777
595 508
598 761
869 156
598 410
781 387
814 368
203 788
505 328
425 200
763 629
518 266
645 781
586 559
232 752
80 932
548 436
544 399
187 857
566 370
461 668
662 544
115 771
912 197
312 197
89 775
417 68
585 306
678 400
546 69
199 805
612 372
990 202
922 342
613 383
881 368
579 248
861 268
261 247
362 329
176 729
815 359
612 763
164 704
574 261
330 585
411 155
135 759
167 241
283 307
193 218
229 785
855 449
330 243
510 493
237 314
600 538
762 400
74 689
552 499
480 245
245 884
727 456
659 409
531 811
156 804
578 114
308 331
454 740
490 706
885 363
599 660
174 815
485 387
242 757
471 140
517 291
303 244
269 197
803 175
404 289
527 272
844 423
177 688
620 778
582 669
551 462
749 651
117 812
455 565
770 369
597 439
875 103
